538540
49,32,37,77,103,35,26,29,97,83,13,78,96,101,38,4,2,45,99,95,58,93,89,44,24,6,34,27,86,65,106,69,20,17,46,84,11,85,94,56,64,8,81,68,42,12,7,104,60,76,87,57,98,19,92,30,66,59,28,10,23,5,22,51,72,62,73,53,105,91,21,90,55,88,9,71,54,25,79,75,43,18,47,48,100,3,102,80,33,14,61,50,52,41,70,16,36,31,39,74,1,67,15,63,82,40